GPU_version/outputs/c201.out
Total number of lines in the file: 110
Total number of nodes including depot: 101
Customer 1: (40, 50), Demand: 0, Time Window: [0, 3390], Service Time: 0
Customer 2: (52, 75), Demand: 10, Time Window: [311, 471], Service Time: 90
Customer 3: (45, 70), Demand: 30, Time Window: [213, 373], Service Time: 90
Customer 4: (62, 69), Demand: 10, Time Window: [1167, 1327], Service Time: 90
Customer 5: (60, 66), Demand: 10, Time Window: [1261, 1421], Service Time: 90
calling MST kernel
Post Processing Route
Post 2 opt Processing Route
2-opt between 86 and 87 improved cost from 2934.87 to 2930.63
Elapsed time: 0.648443 seconds
Final Route: 
Route #1: 93 5 75 2 1 99 100 97 95 
Route #2: 94 
Route #3: 92 98 7 3 4 89 91 88 86 87 
Route #4: 77 
Route #5: 78 
Route #6: 85 81 
Route #7: 76 71 70 73 79 
Route #8: 80 96 
Route #9: 74 
Route #10: 62 61 
Route #11: 72 64 66 69 68 65 49 41 
Route #12: 42 
Route #13: 45 50 52 
Route #14: 51 
Route #15: 46 
Route #16: 44 
Route #17: 40 
Route #18: 57 
Route #19: 55 54 59 
Route #20: 58 60 
Route #21: 56 
Route #22: 53 43 48 
Route #23: 47 
Route #24: 63 67 84 83 82 90 
Route #25: 10 8 21 
Route #26: 22 20 24 27 29 6 32 33 34 
Route #27: 36 
Route #28: 39 
Route #29: 38 
Route #30: 37 
Route #31: 31 35 
Route #32: 30 11 
Route #33: 9 
Route #34: 13 
Route #35: 17 
Route #36: 18 19 15 
Route #37: 16 14 12 25 
Route #38: 23 
Route #39: 26 
Route #40: 28 
Route #41: Total Distance: 2934.87
Final route is valid
